38 40
1 21
1 21
1 21
1 21
1 21
1 21
1 21
1 21
1 21
1 21
1 21
1 21
1 21
1 21
1 21
1 21
1 21
1 21
1 21
41 21
41 21
41 21
41 21
41 21
41 21
41 21
41 21
41 21
41 21
41 21
41 21
41 21
41 21
41 21
41 21
41 21
41 21
41 21
